NAME: cityu10
COMMENT : 10 locations
COMMENT : Best: 384.43
TYPE: TSP
DIMENSION: 10
EDGE_WEIGHT_TYPE: CITYU
NODE_COORD_SECTION
1 2 50
2 2 50
3 1 1608
4 1 1596
5 2 226
6 1 1577
7 1 1592
8 1 1561
9 1 1572
10 1 1561
